SystemName          nanoribbon
SystemLabel         nanoribbon

NumberOfAtoms          168
NumberOfSpecies        2

%block ChemicalSpeciesLabel
  1   6  C
  2   1  H
%endblock ChemicalSpeciesLabel


%block PAO.Basis                 # Define Basis set
C           2                    # Species label, number of l-shells
 n=2   0   1                         # n, l, Nzeta
   4.088    
   1.000    
 n=2   1   1                       # n, l, Nzeta, Polarization, NzetaPol
   4.870      
   1.000      
H           1
 n=1   0   1
    4.500
    1.000
%endblock PAO.Basis

XC.functional GGA
XC.authors    PBE
 
LatticeConstant     1.433600 Ang 
%block LatticeVectors
   20.00000000        0.0000000000        0.0000000000
   0.000000000       20.0000000000        0.0000000000
   0.000000000        0.0000000000       20.784609696
%endblock LatticeVectors

AtomicCoordinatesFormat ScaledCartesian 
%block AtomicCoordinatesAndAtomicSpecies
0.00000        1.00000        0.00000       1    C                
0.00000        2.00000        0.00000       1    C                
0.00000        4.00000        0.00000       1    C                
0.00000        5.00000        0.00000       1    C                
0.00000        7.00000        0.00000       1    C                
0.00000        8.00000        0.00000       1    C                
0.00000       -0.25000        0.86603       2    H                
0.00000        0.50000        0.86603       1    C                
0.00000        2.50000        0.86603       1    C                
0.00000        3.50000        0.86603       1    C                
0.00000        5.50000        0.86603       1    C                
0.00000        6.50000        0.86603       1    C                
0.00000        8.50000        0.86603       1    C                
0.00000        9.25000        0.86603       2    H                
0.00000        1.00000        1.73205       1    C                
0.00000        2.00000        1.73205       1    C                
0.00000        4.00000        1.73205       1    C                
0.00000        5.00000        1.73205       1    C                
0.00000        7.00000        1.73205       1    C                
0.00000        8.00000        1.73205       1    C                
0.00000       -0.25000        2.59808       2    H                
0.00000        0.50000        2.59808       1    C                
0.00000        2.50000        2.59808       1    C                
0.00000        3.50000        2.59808       1    C                
0.00000        5.50000        2.59808       1    C                
0.00000        6.50000        2.59808       1    C                
0.00000        8.50000        2.59808       1    C                
0.00000        9.25000        2.59808       2    H                
0.00000        1.00000        3.46410       1    C                
0.00000        2.00000        3.46410       1    C                
0.00000        4.00000        3.46410       1    C                
0.00000        5.00000        3.46410       1    C                
0.00000        7.00000        3.46410       1    C                
0.00000        8.00000        3.46410       1    C                
0.00000       -0.25000        4.33013       2    H                
0.00000        0.50000        4.33013       1    C                
0.00000        2.50000        4.33013       1    C                
0.00000        3.50000        4.33013       1    C                
0.00000        5.50000        4.33013       1    C                
0.00000        6.50000        4.33013       1    C                
0.00000        8.50000        4.33013       1    C                
0.00000        9.25000        4.33013       2    H                
0.00000        1.00000        5.19615       1    C                
0.00000        2.00000        5.19615       1    C                
0.00000        4.00000        5.19615       1    C                
0.00000        5.00000        5.19615       1    C                
0.00000        7.00000        5.19615       1    C                
0.00000        8.00000        5.19615       1    C                
0.00000       -0.25000        6.06218       2    H                
0.00000        0.50000        6.06218       1    C                
0.00000        2.50000        6.06218       1    C                
0.00000        3.50000        6.06218       1    C                
0.00000        5.50000        6.06218       1    C                
0.00000        6.50000        6.06218       1    C                
0.00000        8.50000        6.06218       1    C                
0.00000        9.25000        6.06218       2    H                
0.00000        1.00000        6.92820       1    C                
0.00000        2.00000        6.92820       1    C                
0.00000        4.00000        6.92820       1    C                
0.00000        5.00000        6.92820       1    C                
0.00000        7.00000        6.92820       1    C                
0.00000        8.00000        6.92820       1    C                
0.00000       -0.25000        7.79423       2    H                
0.00000        0.50000        7.79423       1    C                
0.00000        2.50000        7.79423       1    C                
0.00000        3.50000        7.79423       1    C                
0.00000        5.50000        7.79423       1    C                
0.00000        6.50000        7.79423       1    C                
0.00000        8.50000        7.79423       1    C                
0.00000        9.25000        7.79423       2    H                
0.00000        1.00000        8.66025       1    C                
0.00000        2.00000        8.66025       1    C                
0.00000        4.00000        8.66025       1    C                
0.00000        5.00000        8.66025       1    C                
0.00000        7.00000        8.66025       1    C                
0.00000        8.00000        8.66025       1    C                
0.00000       -0.25000        9.52628       2    H                
0.00000        0.50000        9.52628       1    C                
0.00000        2.50000        9.52628       1    C                
0.00000        3.50000        9.52628       1    C                
0.00000        5.50000        9.52628       1    C                
0.00000        6.50000        9.52628       1    C                
0.00000        8.50000        9.52628       1    C                
0.00000        9.25000        9.52628       2    H                
0.00000        1.00000       10.39230       1    C                
0.00000        2.00000       10.39230       2    C                
0.00000        4.00000       10.39230       1    C                
0.00000        5.00000       10.39230       1    C                
0.00000        7.00000       10.39230       2    C                
0.00000        8.00000       10.39230       1    C                
0.00000       -0.25000       11.25833       2    H                
0.00000        0.50000       11.25833       1    C                
0.00000        2.50000       11.25833       1    C                
0.00000        3.50000       11.25833       2    C                
0.00000        5.50000       11.25833       2    C                
0.00000        6.50000       11.25833       1    C                
0.00000        8.50000       11.25833       1    C                
0.00000        9.25000       11.25833       2    H                
0.00000        1.00000       12.12436       1    C                
0.00000        2.00000       12.12436       1    C                
0.00000        4.00000       12.12436       1    C                
0.00000        5.00000       12.12436       1    C                
0.00000        7.00000       12.12436       1    C                
0.00000        8.00000       12.12436       1    C                
0.00000       -0.25000       12.99038       2    H                
0.00000        0.50000       12.99038       1    C                
0.00000        2.50000       12.99038       1    C                
0.00000        3.50000       12.99038       1    C                
0.00000        5.50000       12.99038       1    C                
0.00000        6.50000       12.99038       1    C                
0.00000        8.50000       12.99038       1    C                
0.00000        9.25000       12.99038       2    H                
0.00000        1.00000       13.85641       1    C                
0.00000        2.00000       13.85641       1    C                
0.00000        4.00000       13.85641       1    C                
0.00000        5.00000       13.85641       1    C                
0.00000        7.00000       13.85641       1    C                
0.00000        8.00000       13.85641       1    C                
0.00000       -0.25000       14.72243       2    H                
0.00000        0.50000       14.72243       1    C                
0.00000        2.50000       14.72243       1    C                
0.00000        3.50000       14.72243       1    C                
0.00000        5.50000       14.72243       1    C                
0.00000        6.50000       14.72243       1    C                
0.00000        8.50000       14.72243       1    C                
0.00000        9.25000       14.72243       2    H                
0.00000        1.00000       15.58846       1    C                
0.00000        2.00000       15.58846       1    C                
0.00000        4.00000       15.58846       1    C                
0.00000        5.00000       15.58846       1    C                
0.00000        7.00000       15.58846       1    C                
0.00000        8.00000       15.58846       1    C                
0.00000       -0.25000       16.45448       2    H                
0.00000        0.50000       16.45448       1    C                
0.00000        2.50000       16.45448       1    C                
0.00000        3.50000       16.45448       1    C                
0.00000        5.50000       16.45448       1    C                
0.00000        6.50000       16.45448       1    C                
0.00000        8.50000       16.45448       1    C                
0.00000        9.25000       16.45448       2    H                
0.00000        1.00000       17.32051       1    C                
0.00000        2.00000       17.32051       1    C                
0.00000        4.00000       17.32051       1    C                
0.00000        5.00000       17.32051       1    C                
0.00000        7.00000       17.32051       1    C                
0.00000        8.00000       17.32051       1    C                
0.00000       -0.25000       18.18653       2    H                
0.00000        0.50000       18.18653       1    C                
0.00000        2.50000       18.18653       1    C                
0.00000        3.50000       18.18653       1    C                
0.00000        5.50000       18.18653       1    C                
0.00000        6.50000       18.18653       1    C                
0.00000        8.50000       18.18653       1    C                
0.00000        9.25000       18.18653       2    H                
0.00000        1.00000       19.05256       1    C                
0.00000        2.00000       19.05256       1    C                
0.00000        4.00000       19.05256       1    C                
0.00000        5.00000       19.05256       1    C                
0.00000        7.00000       19.05256       1    C                
0.00000        8.00000       19.05256       1    C                
0.00000       -0.25000       19.91858       2    H                
0.00000        0.50000       19.91858       1    C                
0.00000        2.50000       19.91858       1    C                
0.00000        3.50000       19.91858       1    C                
0.00000        5.50000       19.91858       1    C                
0.00000        6.50000       19.91858       1    C                
0.00000        8.50000       19.91858       1    C                
0.00000        9.25000       19.91858       2    H                
%endblock AtomicCoordinatesAndAtomicSpecies

%block kgrid_Monkhorst_Pack
   1   0   0  0.0
   0   2   0  0.0
   0   0  10  0.5
%endblock Kgrid_Monkhorst_Pack

MeshCutoff         100.0 Ry

MaxSCFIterations     500
DM.MixingWeight      0.1
DM.NumberPulay       5
DM.Tolerance         1.d-4

WriteKbands .true.
WriteBands  .true.
%block Bandlines
  1   0.5000000000   0.000000000   0.0000   M
 30   0.0000000000   0.000000000   0.0000   \Gamma
 45   0.3333333333   0.333333333   0.0000   K
 30   0.5000000000   0.500000000   0.0000   M
%endblock BandLines

SolutionMethod   transiesta
TS.WriteHS  .true.
TS.NumUsedAtomsLeft  28
TS.NumUsedAtomsRight 28
TS.HSFileLeft   '../electrode/nanoribbon.TSHS'
TS.HSFileRight  '../electrode/nanoribbon.TSHS'
TS.TBT.HSFile   './nanoribbon.TSHS'
TS.TBT.Emin    -0.3 eV
TS.TBT.Emax     0.3 eV
TS.TBT.NPoints   100

